(set-info :smt-lib-version 2.6)
(set-logic QF_FP)
(set-info :source "|
Generated by the tool Ultimate Automizer [1,2] which implements
an automata theoretic approach [3] to software verification.

This SMT script belongs to a set of SMT scripts that was generated by
applying Ultimate Automizer to benchmarks [4] from the SV-COMP 2019 [5,6].
This script might _not_ contain all SMT commands that are used by
Ultimate Automizer. In order to satisfy the restrictions of
the SMT-COMP we have to drop e.g., the commands for getting
values (resp. models), unsatisfiable cores and interpolants.

2019-04-27, Matthias Heizmann (heizmann@informatik.uni-freiburg.de)

[1] https://ultimate.informatik.uni-freiburg.de/automizer/
[2] Matthias Heizmann, Yu-Fang Chen, Daniel Dietsch, Marius Greitschus,
     Jochen Hoenicke, Yong Li, Alexander Nutz, Betim Musa, Christian
     Schilling, Tanja Schindler, Andreas Podelski: Ultimate Automizer
     and the Search for Perfect Interpolants - (Competition Contribution).
     TACAS (2) 2018: 447-451
[3] Matthias Heizmann, Jochen Hoenicke, Andreas Podelski: Software Model
     Checking for People Who Love Automata. CAV 2013:36-52
[4] https://github.com/sosy-lab/sv-benchmarks
[5] Dirk Beyer: Automatic Verification of C and Java Programs: SV-COMP 2019.
     TACAS (3) 2019: 133-155
[6] https://sv-comp.sosy-lab.org/2019/
|")
(set-info :license "https://creativecommons.org/licenses/by/4.0/")
(set-info :category "industrial")
(set-info :status sat)
(declare-fun v_currentRoundingMode_5_const_205912938 () RoundingMode)
(declare-fun v___ieee754_powf_~t~1_2_const_1226724764 () (_ FloatingPoint 8 24))
(declare-fun v_~P5_pow~0_1_const_1812017236 () (_ FloatingPoint 8 24))
(declare-fun v_~P4_pow~0_1_const_5153621 () (_ FloatingPoint 8 24))
(declare-fun v_~P3_pow~0_1_const_-1752542634 () (_ FloatingPoint 8 24))
(declare-fun v_~P2_pow~0_1_const_735561047 () (_ FloatingPoint 8 24))
(declare-fun v_~P1_pow~0_1_const_-1089244080 () (_ FloatingPoint 8 24))
(declare-fun v___ieee754_powf_~u~0_1_const_1225279837 () (_ FloatingPoint 8 24))
(declare-fun v___ieee754_powf_~v~0_1_const_1241153244 () (_ FloatingPoint 8 24))
(declare-fun v___ieee754_powf_~t1~0_1_const_-816610753 () (_ FloatingPoint 8 24))
(declare-fun v___ieee754_powf_~t~1_3_const_1226724771 () (_ FloatingPoint 8 24))
(declare-fun v___ieee754_powf_~p_h~0_1_const_-1815640063 () (_ FloatingPoint 8 24))
(declare-fun v___ieee754_powf_~p_l~0_1_const_-1819286011 () (_ FloatingPoint 8 24))
(declare-fun v_~lg2_pow~0_1_const_324197820 () (_ FloatingPoint 8 24))
(declare-fun v_~lg2_l_pow~0_1_const_212628015 () (_ FloatingPoint 8 24))
(declare-fun v___ieee754_powf_~r~1_1_const_1228014751 () (_ FloatingPoint 8 24))
(declare-fun v_~one_pow~0_1_const_487000845 () (_ FloatingPoint 8 24))
(declare-fun v___ieee754_powf_~z~1_1_const_1237500071 () (_ FloatingPoint 8 24))
(declare-fun v___ieee754_powf_~w~0_1_const_1240766051 () (_ FloatingPoint 8 24))
(declare-fun v_~lg2_h_pow~0_1_const_1606333995 () (_ FloatingPoint 8 24))
(declare-fun v_~two_pow~0_1_const_-749734153 () (_ FloatingPoint 8 24))
(assert (let ((.cse0 (fp.add v_currentRoundingMode_5_const_205912938 v___ieee754_powf_~u~0_1_const_1225279837 v___ieee754_powf_~v~0_1_const_1241153244))) (and (= v___ieee754_powf_~v~0_1_const_1241153244 (fp.add v_currentRoundingMode_5_const_205912938 (fp.mul v_currentRoundingMode_5_const_205912938 (fp.sub v_currentRoundingMode_5_const_205912938 v___ieee754_powf_~p_l~0_1_const_-1819286011 (fp.sub v_currentRoundingMode_5_const_205912938 v___ieee754_powf_~t~1_3_const_1226724771 v___ieee754_powf_~p_h~0_1_const_-1815640063)) v_~lg2_pow~0_1_const_324197820) (fp.mul v_currentRoundingMode_5_const_205912938 v___ieee754_powf_~t~1_3_const_1226724771 v_~lg2_l_pow~0_1_const_212628015))) (= (fp.mul v_currentRoundingMode_5_const_205912938 .cse0 .cse0) v___ieee754_powf_~t~1_2_const_1226724764) (= (fp.sub v_currentRoundingMode_5_const_205912938 v_~one_pow~0_1_const_487000845 (fp.sub v_currentRoundingMode_5_const_205912938 v___ieee754_powf_~r~1_1_const_1228014751 .cse0)) v___ieee754_powf_~z~1_1_const_1237500071) (= (fp.sub v_currentRoundingMode_5_const_205912938 .cse0 (fp.mul v_currentRoundingMode_5_const_205912938 v___ieee754_powf_~t~1_2_const_1226724764 (fp.add v_currentRoundingMode_5_const_205912938 v_~P1_pow~0_1_const_-1089244080 (fp.mul v_currentRoundingMode_5_const_205912938 v___ieee754_powf_~t~1_2_const_1226724764 (fp.add v_currentRoundingMode_5_const_205912938 v_~P2_pow~0_1_const_735561047 (fp.mul v_currentRoundingMode_5_const_205912938 v___ieee754_powf_~t~1_2_const_1226724764 (fp.add v_currentRoundingMode_5_const_205912938 v_~P3_pow~0_1_const_-1752542634 (fp.mul v_currentRoundingMode_5_const_205912938 v___ieee754_powf_~t~1_2_const_1226724764 (fp.add v_currentRoundingMode_5_const_205912938 v_~P4_pow~0_1_const_5153621 (fp.mul v_currentRoundingMode_5_const_205912938 v___ieee754_powf_~t~1_2_const_1226724764 v_~P5_pow~0_1_const_1812017236)))))))))) v___ieee754_powf_~t1~0_1_const_-816610753) (= (fp.sub v_currentRoundingMode_5_const_205912938 v___ieee754_powf_~v~0_1_const_1241153244 (fp.sub v_currentRoundingMode_5_const_205912938 .cse0 v___ieee754_powf_~u~0_1_const_1225279837)) v___ieee754_powf_~w~0_1_const_1240766051) (= v___ieee754_powf_~u~0_1_const_1225279837 (fp.mul v_currentRoundingMode_5_const_205912938 v___ieee754_powf_~t~1_3_const_1226724771 v_~lg2_h_pow~0_1_const_1606333995)) (= (fp.sub v_currentRoundingMode_5_const_205912938 (fp.div v_currentRoundingMode_5_const_205912938 (fp.mul v_currentRoundingMode_5_const_205912938 .cse0 v___ieee754_powf_~t1~0_1_const_-816610753) (fp.sub v_currentRoundingMode_5_const_205912938 v___ieee754_powf_~t1~0_1_const_-816610753 v_~two_pow~0_1_const_-749734153)) (fp.add v_currentRoundingMode_5_const_205912938 v___ieee754_powf_~w~0_1_const_1240766051 (fp.mul v_currentRoundingMode_5_const_205912938 .cse0 v___ieee754_powf_~w~0_1_const_1240766051))) v___ieee754_powf_~r~1_1_const_1228014751))))
(check-sat)
(exit)
